NAME: line_70_2
TYPE: TSP
COMMENT: line_70_2
DIMENSION: 70
EDGE_WEIGHT_TYPE: EUC_2D
NODE_COORD_SECTION
1 0.0 133.0
2 0.0 370.0
3 0.0 654.0
4 0.0 384.0
5 0.0 647.0
6 0.0 82.0
7 0.0 306.0
8 0.0 107.0
9 0.0 361.0
10 0.0 527.0
11 0.0 298.0
12 0.0 88.0
13 0.0 629.0
14 0.0 505.0
15 0.0 130.0
16 0.0 641.0
17 0.0 108.0
18 0.0 220.0
19 0.0 282.0
20 0.0 619.0
21 0.0 187.0
22 0.0 692.0
23 0.0 589.0
24 0.0 324.0
25 0.0 316.0
26 0.0 538.0
27 0.0 481.0
28 0.0 60.0
29 0.0 636.0
30 0.0 202.0
31 0.0 162.0
32 0.0 321.0
33 0.0 617.0
34 0.0 315.0
35 0.0 92.0
36 0.0 273.0
37 0.0 659.0
38 0.0 590.0
39 0.0 12.0
40 0.0 431.0
41 0.0 457.0
42 0.0 470.0
43 0.0 193.0
44 0.0 439.0
45 0.0 13.0
46 0.0 461.0
47 0.0 511.0
48 0.0 505.0
49 0.0 199.0
50 0.0 20.0
51 0.0 218.0
52 0.0 464.0
53 0.0 170.0
54 0.0 144.0
55 0.0 87.0
56 0.0 549.0
57 0.0 42.0
58 0.0 149.0
59 0.0 688.0
60 0.0 295.0
61 0.0 656.0
62 0.0 37.0
63 0.0 388.0
64 0.0 558.0
65 0.0 83.0
66 0.0 148.0
67 0.0 458.0
68 0.0 236.0
69 0.0 38.0
70 0.0 432.0
